p tw 92 104
1 2
2 13
3 4
4 5
5 6
6 7
6 11
7 8
8 9
9 10
9 68
10 91
11 12
12 14
13 24
14 15
15 16
16 17
17 18
18 19
19 20
20 21
21 22
21 29
22 23
23 25
23 26
24 35
25 26
26 27
27 28
28 15
29 30
30 31
31 32
32 33
32 36
33 34
34 36
34 51
35 46
36 37
37 38
37 87
38 39
39 40
39 87
40 41
41 42
42 43
43 44
44 45
44 87
45 47
46 57
47 48
48 49
49 50
50 51
50 87
51 52
52 53
53 54
54 55
55 56
56 58
57 68
58 59
58 61
59 60
60 61
60 64
61 62
62 63
63 53
64 65
65 66
66 67
67 69
68 79
69 70
70 71
70 80
71 72
72 73
73 74
74 75
75 76
76 77
77 78
78 67
79 90
80 81
81 82
82 83
83 84
84 85
85 86
86 68
87 88
88 89
89 68
90 3
91 92
